width,height
25,25
3,1
7,1
17,1
2,2
3,3
5,3
19,3
12,5
8,2
14,1
24,2
21,2
15,3
8,4
20,2
23,4
9,2
14,2
14,4
13,2
19,3
25,1
8,1
4,3
4,1
25,2
9,5
19,2
15,2
11,2
10,5
15,5
10,4
20,4
7,3
20,4
4,4
19,5
9,5
3,2
18,3
25,2
12,3
17,5
20,3
19,2
22,4
8,4
22,3
25,4
9,4
24,1
15,5
19,5
7,1
8,5
21,1
8,3
10,5
1,1
22,4
4,4
13,1
3,5
16,1
10,1
5,2
8,3
6,1
2,5
10,4
4,2
17,1
19,3
11,2
10,2
3,1
25,4
12,1
1,5
3,1
8,1
2,3
25,1
6,3
11,3
16,4
4,3
4,3
8,4
14,1
12,5
25,2
16,2
19,2
18,2
4,5
22,4
8,4
4,4
